68760
261,273,292,365,426,483,695,714,828,945,965,1017,1109,1206,1334,1605,1715,1797,1868,2051,2090,2116,2226,2320,2415,2422,2573,2583,2613,2637,2732,2744,2854,3053,3260,3264,3398,3444,3562,3599,3702,3737,3817,3877,3890,3904,3914,4039,4115,4153,4166,4191,4236,4439,4512,4552,4667,4699,4787,4818,4927,5070,5363,5407,5623,5670,5959,5968,6041,6105,6151,6181,6226,6308,6376,6396,6521,6787,6815,6877,6883,6966,7103,7122,7136,7189,7241,7502,7735,7738,7772,7854,7999,8021,8032,8055,8081,8167,8169,8202,8238,8346,8388,8394,8557,8580,8583,8632,8695,8706,8769,8834,8961,9116,9282,9393,9448,9562,9566,9666,9915,9956,9958
